NAME : instances/clustered-mixed-tsp/instance-75.tsp
COMMENT : No Comment
TYPE : TSP
DIMENSION: 41
EDGE_WEIGHT_TYPE : EUC_2D
NODE_COORD_SECTION
1 2721 1218 
2 235 1290 
3 115 1499 
4 2588 3011 
5 1080 1592 
6 1126 1527 
7 1811 867 
8 183 1210 
9 434 1461 
10 2447 1230 
11 2437 988 
12 874 1573 
13 2709 3040 
14 2305 2999 
15 2445 2746 
16 230 1280 
17 1306 1890 
18 2192 1985 
19 426 1434 
20 297 1336 
21 1928 1838 
22 2018 2096 
23 102 1513 
24 868 1926 
25 2421 1248 
26 2666 1106 
27 244 1258 
28 2582 2761 
29 367 1158 
30 2187 1818 
31 1714 605 
32 249 1410 
33 445 1297 
34 1904 1995 
35 1907 582 
36 1941 2113 
37 1891 746 
38 2702 2713 
39 336 1437 
40 1088 1560 
41 861 1840 
EOF
